
Gurobi 6.5.2 (win64) logging started 07/23/16 02:57:10


Gurobi 6.5.2 (win64) logging started 07/23/16 02:57:10

Optimize a model with 20062 rows, 932 columns and 40964 nonzeros
Coefficient statistics:
  Matrix range    [1e+00, 1e+00]
  Objective range [7e+00, 5e+01]
  Bounds range    [1e+00, 1e+00]
  RHS range       [1e+00, 1e+00]
Found heuristic solution: objective -0
Presolve removed 19887 rows and 81 columns
Presolve time: 0.02s
Presolved: 175 rows, 851 columns, 2783 nonzeros
Variable types: 0 continuous, 851 integer (851 binary)

Root relaxation: objective 7.420000e+02, 293 iterations, 0.00 seconds

    Nodes    |    Current Node    |     Objective Bounds      |     Work
 Expl Unexpl |  Obj  Depth IntInf | Incumbent    BestBd   Gap | It/Node Time

*    0     0               0     742.0000000  742.00000  0.00%     -    0s

Explored 0 nodes (384 simplex iterations) in 0.03 seconds
Thread count was 8 (of 8 available processors)

Optimal solution found (tolerance 1.00e-04)
Best objective 7.420000000000e+02, best bound 7.420000000000e+02, gap 0.0%

Wrote requested result file 'H2\instance17\\Results17.lp'

